groups = 9;
numShifts = 3;
demand = [| 2, 2, 2, 2, 2, 2, 2,
          | 2, 2, 2, 3, 3, 3, 2,
          | 2, 2, 2, 2, 2, 2, 2 |];
minShift = [2, 2, 2];
maxShift = [7, 6, 4];
minOff = 2;
maxOff = 4;
minOn = 4;
maxOn = 7;
forbidden = [{}, {1}, {1,2}];
forbidden3 = [|  |];
